ALGO = Fast
EDIFF = 0.0032
EDIFFG = -0.05
ENCUT = 520
IBRION = 2
ISIF = 2
ISMEAR = -5
ISPIN = 2
LASPH = True
LORBIT = 11
LREAL = Auto
LWAVE = False
MAGMOM = 64*0.6
NELM = 100
NSW = 99
PREC = Accurate
SIGMA = 0.05
