Li32 F32
1.0
8.166856 0.000000 0.000000
0.000000 8.166856 0.000000
0.000000 0.000000 8.166856
Li F
32 32
direct
0.000000 0.000000 0.000000 Li
0.000000 0.000000 0.500000 Li
0.000000 0.500000 0.000000 Li
0.000000 0.500000 0.500000 Li
0.500000 0.000000 0.000000 Li
0.500000 0.000000 0.500000 Li
0.500000 0.500000 0.000000 Li
0.500000 0.500000 0.500000 Li
0.000000 0.250000 0.250000 Li
0.000000 0.250000 0.750000 Li
0.000000 0.750000 0.250000 Li
0.000000 0.750000 0.750000 Li
0.500000 0.250000 0.250000 Li
0.500000 0.250000 0.750000 Li
0.500000 0.750000 0.250000 Li
0.500000 0.750000 0.750000 Li
0.250000 0.000000 0.250000 Li
0.250000 0.000000 0.750000 Li
0.250000 0.500000 0.250000 Li
0.250000 0.500000 0.750000 Li
0.750000 0.000000 0.250000 Li
0.750000 0.000000 0.750000 Li
0.750000 0.500000 0.250000 Li
0.750000 0.500000 0.750000 Li
0.250000 0.250000 0.000000 Li
0.250000 0.250000 0.500000 Li
0.250000 0.750000 0.000000 Li
0.250000 0.750000 0.500000 Li
0.750000 0.250000 1.000000 Li
0.750000 0.250000 0.500000 Li
0.750000 0.750000 1.000000 Li
0.750000 0.750000 0.500000 Li
0.250000 0.000000 0.000000 F
0.250000 0.000000 0.500000 F
0.250000 0.500000 1.000000 F
0.250000 0.500000 0.500000 F
0.750000 0.000000 1.000000 F
0.750000 0.000000 0.500000 F
0.750000 0.500000 0.000000 F
0.750000 0.500000 0.500000 F
0.250000 0.250000 0.250000 F
0.250000 0.250000 0.750000 F
0.250000 0.750000 0.250000 F
0.250000 0.750000 0.750000 F
0.750000 0.250000 0.250000 F
0.750000 0.250000 0.750000 F
0.750000 0.750000 0.250000 F
0.750000 0.750000 0.750000 F
0.000000 0.000000 0.250000 F
0.000000 0.000000 0.750000 F
0.000000 0.500000 0.250000 F
0.000000 0.500000 0.750000 F
0.500000 0.000000 0.250000 F
0.500000 0.000000 0.750000 F
0.500000 0.500000 0.250000 F
0.500000 0.500000 0.750000 F
0.000000 0.250000 0.000000 F
0.000000 0.250000 0.500000 F
0.000000 0.750000 1.000000 F
0.000000 0.750000 0.500000 F
0.500000 0.250000 1.000000 F
0.500000 0.250000 0.500000 F
0.500000 0.750000 0.000000 F
0.500000 0.750000 0.500000 F
