pymatgen with grid density = 1836 / number of atoms
0
Gamma
3 3 3
