Li28 La12 Zr8 O48                       
   1.00205000000000     
    11.0945006408681124   -0.0162343038238658    0.0000008476584920
    -4.0687434782020961   10.3215086323249778   -0.0000037182894351
    -3.5128780553130654   -5.1526404336269671    9.1759607653346187
   Li   La   Zr   O 
    28    12     8    48
Direct
  0.8749992817640966  0.1249998324930895  0.2500005383054521
  0.3749991661978588  0.6250000471888424  0.2500002106026812
  0.6250006546419155  0.3750013794575079  0.7500007714933625
  0.1249997220063030  0.8749999326778150  0.7500006115472354
  0.3047010574988442  0.5547046523138525  0.6094019306934833
  0.4452989268831873  0.0547013181802156  0.2499987785662226
  0.0547027777531505  0.8047011728926203  0.1094020412805320
  0.1953038626606476  0.3047072648970106  0.7500042726383297
  0.6952982590649844  0.4453012385758656  0.3905938941657880
  0.5547037354340134  0.9452982359784629  0.7499971082800613
  0.9452996231042847  0.1952976226877859  0.8905950564731948
  0.8047065919046936  0.6953019429861740  0.2500021256629297
  0.2809137042675371  0.7750442827672539  0.1675604395931063
  0.1074851043722449  0.2750481149684303  0.4941321443689979
  0.2750438899418171  0.7809152473766453  0.6675634964928110
  0.6133553293997152  0.2809188966929931  0.5058716094552171
  0.7190843798387826  0.2249574809648309  0.8324371172292562
  0.8925211437992698  0.7249613618725766  0.5058736025547284
  0.7249556514066339  0.2190857632188311  0.3324410993472864
  0.3866478117656306  0.7190888245034296  0.4941284073752315
  0.7809145737485400  0.1133511262942506  0.0058685052150726
  0.6074825333873908  0.6133539633560240  0.3324397528764038
  0.7750422227714593  0.6074812060903715  0.9941289012045457
  0.1133499331707349  0.1074780965117209  0.8324380279520576
  0.2190861337680042  0.8866463889295672  0.9941282621626605
  0.3925184869113127  0.3866477191957690  0.6675631695433660
  0.2249555660466883  0.3925172708569874  0.0058720102520154
  0.8866428789567130  0.8925128880039189  0.1675602173901353
  0.1250023406584591  0.3749999909845685  0.2499989580949643
  0.6249964402206710  0.8749934969497076  0.2499968739035620
  0.8750027725165591  0.6250010627396010  0.7499975326806039
  0.3749983156107785  0.1249965878644535  0.7499984755723591
  0.7499984245549264  0.3777164417162577  0.1277145109473540
  0.7500002433672749  0.8777151232995453  0.6277160048966457
  0.8777221452099117  0.2500068281458453  0.6277208390507822
  0.1222872808693198  0.7500076543947927  0.3722889204285980
  0.2499966029671706  0.6222823701415021  0.8722791307650782
  0.2500015674797022  0.1222829404589245  0.3722852208802317
  0.3777123810858270  0.2499947689242911  0.1277157562936684
  0.6222781015297623  0.7499921413030027  0.8722794769267962
 -0.0000030655280769  0.4999929097829839  0.0000070816586840
 -0.0000015122816083  0.0000074286763930  0.4999979681013482
 -0.0000078629582106  0.4999959280663346  0.4999808585870142
  0.5000120428987480  0.0000059763401674  0.5000028489243947
  0.5000179231387952  0.0000105614737442  0.0000076619617929
  0.4999943102770857  0.4999949684783472  0.4999921461982887
  0.4999982704927561  0.4999901393398106  0.0000095911876657
 -0.0000031384668562  0.0000058637418628  0.0000086234473950
  0.9020506806623908  0.3121441352220922  0.0207704293759950
  0.7913805257084495  0.8121496136357962  0.4100949224437166
  0.8121459908808638  0.4020503322807321  0.5207590730680720
  0.3812869061671807  0.9020541646142309  0.5899034000038661
  0.0979457890437362  0.6878457557503045  0.9792351995879285
  0.2086165064339461  0.1878523053668036  0.5899026111323298
  0.1878477410086574  0.5979452479017408  0.4792245535403191
  0.6187177198093496  0.0979495200176783  0.4100973142884261
  0.4020597007888060  0.8812891272423483  0.0899057001896383
  0.2913783483120220  0.3812835525645908  0.4792275626431751
  0.3121497105234293  0.2913799308433938  0.9101023046473717
  0.8812843326991423  0.7913848986345862  0.9792360528260957
  0.5979536194153527  0.1187178707643998  0.9100976892156685
  0.7086146217998606  0.6187129616874343  0.5207612068475485
  0.6878500716809958  0.7086152618880666  0.0899070347332025
  0.1187150051728000  0.2086220216784589  0.0207727477868581
  0.3185853122755514  0.0204688609286446  0.9078924139098947
  0.6125715376887632  0.5204615194847588  0.7018807090674295
  0.5204648541067153  0.8185786175418754  0.4078875343551746
  0.9106837065514468  0.3185721271399714  0.2981025157878509
  0.6814285700834565  0.9795385625233811  0.0921137162965943
  0.3874206905130532  0.4795324262169560  0.2981076765967129
  0.4795379139353876  0.1814252144127428  0.5921119975585484
  0.0893070156746097  0.6814182914077318  0.7018754985851988
  0.8185774181695136  0.4106860885910401  0.7981158791810091
  0.1125730437060082  0.9106904869706783  0.5921082307626760
  0.0204627810356286  0.1125799113072729  0.2018917503954822
  0.4106905450522838  0.6125721346702313  0.0921172386881095
  0.1814212022927736  0.5893070458751354  0.2018896701849154
  0.8874213578409175  0.0893122825114119  0.4078863963946339
  0.9795360017539076  0.8874287308513228  0.7981183569474029
  0.5893141306745883  0.3874229389019269  0.9078941323133457
  0.5808270942741357  0.2034495627664881  0.1776011199799295
  0.5258441932339722  0.7034431252395423  0.6226185575995625
  0.7034460065199859  0.0808220452589095  0.6776001039520254
  0.9032183510857785  0.5808204847247797  0.3773689287669396
  0.4191832695588795  0.7965574865574101  0.8224040325595723
  0.4741508339429328  0.2965530671279608  0.3773726368317399
  0.2965566162123451  0.9191801433120048  0.3224038670813630
  0.0967725862575838  0.4191778797902763  0.6226166712504371
  0.0808189972743833  0.4032192282682697  0.8773796501336250
  0.0258451724803341  0.9032238058021457  0.3224015575767744
  0.2034435194051632  0.0258499175727094  0.1226260430944909
  0.4032239905400574  0.5258411254390944  0.8224072451732085
  0.9191766396935569  0.5967737776643255  0.1226276215830009
  0.9741503503321122  0.0967763170696486  0.6775972855750759
  0.7965533024524916  0.9741551273840278  0.8773765924669313
  0.5967791061652524  0.4741484788397549  0.1776039017908346
 
  0.00000000E+00  0.00000000E+00  0.00000000E+00
  0.00000000E+00  0.00000000E+00  0.00000000E+00
  0.00000000E+00  0.00000000E+00  0.00000000E+00
  0.00000000E+00  0.00000000E+00  0.00000000E+00
  0.00000000E+00  0.00000000E+00  0.00000000E+00
  0.00000000E+00  0.00000000E+00  0.00000000E+00
  0.00000000E+00  0.00000000E+00  0.00000000E+00
  0.00000000E+00  0.00000000E+00  0.00000000E+00
  0.00000000E+00  0.00000000E+00  0.00000000E+00
  0.00000000E+00  0.00000000E+00  0.00000000E+00
  0.00000000E+00  0.00000000E+00  0.00000000E+00
  0.00000000E+00  0.00000000E+00  0.00000000E+00
  0.00000000E+00  0.00000000E+00  0.00000000E+00
  0.00000000E+00  0.00000000E+00  0.00000000E+00
  0.00000000E+00  0.00000000E+00  0.00000000E+00
  0.00000000E+00  0.00000000E+00  0.00000000E+00
  0.00000000E+00  0.00000000E+00  0.00000000E+00
  0.00000000E+00  0.00000000E+00  0.00000000E+00
  0.00000000E+00  0.00000000E+00  0.00000000E+00
  0.00000000E+00  0.00000000E+00  0.00000000E+00
  0.00000000E+00  0.00000000E+00  0.00000000E+00
  0.00000000E+00  0.00000000E+00  0.00000000E+00
  0.00000000E+00  0.00000000E+00  0.00000000E+00
  0.00000000E+00  0.00000000E+00  0.00000000E+00
  0.00000000E+00  0.00000000E+00  0.00000000E+00
  0.00000000E+00  0.00000000E+00  0.00000000E+00
  0.00000000E+00  0.00000000E+00  0.00000000E+00
  0.00000000E+00  0.00000000E+00  0.00000000E+00
  0.00000000E+00  0.00000000E+00  0.00000000E+00
  0.00000000E+00  0.00000000E+00  0.00000000E+00
  0.00000000E+00  0.00000000E+00  0.00000000E+00
  0.00000000E+00  0.00000000E+00  0.00000000E+00
  0.00000000E+00  0.00000000E+00  0.00000000E+00
  0.00000000E+00  0.00000000E+00  0.00000000E+00
  0.00000000E+00  0.00000000E+00  0.00000000E+00
  0.00000000E+00  0.00000000E+00  0.00000000E+00
  0.00000000E+00  0.00000000E+00  0.00000000E+00
  0.00000000E+00  0.00000000E+00  0.00000000E+00
  0.00000000E+00  0.00000000E+00  0.00000000E+00
  0.00000000E+00  0.00000000E+00  0.00000000E+00
  0.00000000E+00  0.00000000E+00  0.00000000E+00
  0.00000000E+00  0.00000000E+00  0.00000000E+00
  0.00000000E+00  0.00000000E+00  0.00000000E+00
  0.00000000E+00  0.00000000E+00  0.00000000E+00
  0.00000000E+00  0.00000000E+00  0.00000000E+00
  0.00000000E+00  0.00000000E+00  0.00000000E+00
  0.00000000E+00  0.00000000E+00  0.00000000E+00
  0.00000000E+00  0.00000000E+00  0.00000000E+00
  0.00000000E+00  0.00000000E+00  0.00000000E+00
  0.00000000E+00  0.00000000E+00  0.00000000E+00
  0.00000000E+00  0.00000000E+00  0.00000000E+00
  0.00000000E+00  0.00000000E+00  0.00000000E+00
  0.00000000E+00  0.00000000E+00  0.00000000E+00
  0.00000000E+00  0.00000000E+00  0.00000000E+00
  0.00000000E+00  0.00000000E+00  0.00000000E+00
  0.00000000E+00  0.00000000E+00  0.00000000E+00
  0.00000000E+00  0.00000000E+00  0.00000000E+00
  0.00000000E+00  0.00000000E+00  0.00000000E+00
  0.00000000E+00  0.00000000E+00  0.00000000E+00
  0.00000000E+00  0.00000000E+00  0.00000000E+00
  0.00000000E+00  0.00000000E+00  0.00000000E+00
  0.00000000E+00  0.00000000E+00  0.00000000E+00
  0.00000000E+00  0.00000000E+00  0.00000000E+00
  0.00000000E+00  0.00000000E+00  0.00000000E+00
  0.00000000E+00  0.00000000E+00  0.00000000E+00
  0.00000000E+00  0.00000000E+00  0.00000000E+00
  0.00000000E+00  0.00000000E+00  0.00000000E+00
  0.00000000E+00  0.00000000E+00  0.00000000E+00
  0.00000000E+00  0.00000000E+00  0.00000000E+00
  0.00000000E+00  0.00000000E+00  0.00000000E+00
  0.00000000E+00  0.00000000E+00  0.00000000E+00
  0.00000000E+00  0.00000000E+00  0.00000000E+00
  0.00000000E+00  0.00000000E+00  0.00000000E+00
  0.00000000E+00  0.00000000E+00  0.00000000E+00
  0.00000000E+00  0.00000000E+00  0.00000000E+00
  0.00000000E+00  0.00000000E+00  0.00000000E+00
  0.00000000E+00  0.00000000E+00  0.00000000E+00
  0.00000000E+00  0.00000000E+00  0.00000000E+00
  0.00000000E+00  0.00000000E+00  0.00000000E+00
  0.00000000E+00  0.00000000E+00  0.00000000E+00
  0.00000000E+00  0.00000000E+00  0.00000000E+00
  0.00000000E+00  0.00000000E+00  0.00000000E+00
  0.00000000E+00  0.00000000E+00  0.00000000E+00
  0.00000000E+00  0.00000000E+00  0.00000000E+00
  0.00000000E+00  0.00000000E+00  0.00000000E+00
  0.00000000E+00  0.00000000E+00  0.00000000E+00
  0.00000000E+00  0.00000000E+00  0.00000000E+00
  0.00000000E+00  0.00000000E+00  0.00000000E+00
  0.00000000E+00  0.00000000E+00  0.00000000E+00
  0.00000000E+00  0.00000000E+00  0.00000000E+00
  0.00000000E+00  0.00000000E+00  0.00000000E+00
  0.00000000E+00  0.00000000E+00  0.00000000E+00
  0.00000000E+00  0.00000000E+00  0.00000000E+00
  0.00000000E+00  0.00000000E+00  0.00000000E+00
  0.00000000E+00  0.00000000E+00  0.00000000E+00
  0.00000000E+00  0.00000000E+00  0.00000000E+00
